(declare-fun temp1613_1 () (_ BitVec 64))
(declare-fun var68976 () (_ BitVec 64))
(declare-fun temp1613_2 () (_ BitVec 64))
(declare-fun temp1613_3 () (_ BitVec 64))
(declare-fun temp1613_4 () (_ BitVec 64))
(declare-fun ARGNAME_w_ih_NAMEEND_DIMSIZE
             ()
             (Array (_ BitVec 64) (_ BitVec 64)))
(declare-fun temp1613_5 () (_ BitVec 64))
(declare-fun temp1613_6 () (_ BitVec 64))
(declare-fun temp1613_7 () (_ BitVec 64))
(declare-fun temp1613_8 () (_ BitVec 64))
(declare-fun temp1613_9 () (_ BitVec 64))
(declare-fun temp1613_10 () (_ BitVec 64))
(declare-fun temp1613_11 () (_ BitVec 64))
(declare-fun temp1613_12 () (_ BitVec 64))
(declare-fun temp1613_13 () (_ BitVec 64))
(declare-fun temp1613_14 () (_ BitVec 64))
(declare-fun temp1613_15 () (_ BitVec 64))
(declare-fun temp1613_16 () (_ BitVec 64))
(declare-fun temp1613_17 () (_ BitVec 64))
(declare-fun temp1613_18 () (_ BitVec 64))
(declare-fun temp1613_19 () (_ BitVec 64))
(declare-fun temp1613_20 () (_ BitVec 64))
(declare-fun temp1613_21 () (_ BitVec 64))
(declare-fun temp1613_22 () (_ BitVec 64))
(declare-fun var77378 () (_ BitVec 64))
(declare-fun temp1613_23 () (_ BitVec 64))
(declare-fun temp1613_24 () (_ BitVec 64))
(declare-fun temp1613_25 () (_ BitVec 64))
(declare-fun ARGNAME_input_NAMEEND_DIMSIZE
             ()
             (Array (_ BitVec 64) (_ BitVec 64)))
(declare-fun temp1613_26 () (_ BitVec 64))
(declare-fun temp1613_27 () (_ BitVec 64))
(declare-fun temp1613_28 () (_ BitVec 64))
(declare-fun temp1613_29 () (_ BitVec 64))
(declare-fun temp1613_30 () (_ BitVec 64))
(declare-fun temp1613_31 () (_ BitVec 64))
(declare-fun temp1613_32 () (_ BitVec 64))
(declare-fun temp1613_33 () (_ BitVec 64))
(declare-fun temp1613_34 () (_ BitVec 64))
(declare-fun temp1613_35 () (_ BitVec 64))
(declare-fun temp1613_36 () (_ BitVec 64))
(declare-fun temp1613_37 () (_ BitVec 64))
(declare-fun temp1613_38 () (_ BitVec 64))
(declare-fun temp1613_39 () (_ BitVec 64))
(declare-fun temp1613_40 () (_ BitVec 64))
(declare-fun temp1613_41 () (_ BitVec 64))
(declare-fun temp1613_42 () (_ BitVec 64))
(declare-fun temp1613_43 () (_ BitVec 64))
(declare-fun temp1613_44 () (_ BitVec 64))
(declare-fun temp1613_45 () (_ BitVec 64))
(declare-fun var404256 () (_ BitVec 64))
(declare-fun k!0 () Bool)
(declare-fun ARGNAME_w_ih_NAMEEND_DIM () (_ BitVec 64))
(declare-fun k!1 () (_ BitVec 64))
(declare-fun k!2 () (_ BitVec 64))
(declare-fun k!3 () Bool)
(declare-fun k!4 () Bool)
(declare-fun ARGNAME_input_NAMEEND_DIM () (_ BitVec 64))
(declare-fun temp1613_46 () (_ BitVec 64))
(declare-fun temp1613_47 () (_ BitVec 64))
(declare-fun temp1613_48 () (_ BitVec 64))
(declare-fun ARGNAME_w_hh_NAMEEND_DIMSIZE
             ()
             (Array (_ BitVec 64) (_ BitVec 64)))
(declare-fun temp1613_49 () (_ BitVec 64))
(declare-fun temp1613_50 () (_ BitVec 64))
(declare-fun temp1613_51 () (_ BitVec 64))
(declare-fun temp1613_52 () (_ BitVec 64))
(declare-fun temp1613_53 () (_ BitVec 64))
(declare-fun temp1613_54 () (_ BitVec 64))
(declare-fun temp1613_55 () (_ BitVec 64))
(declare-fun temp1613_56 () (_ BitVec 64))
(declare-fun temp1613_57 () (_ BitVec 64))
(declare-fun temp1613_58 () (_ BitVec 64))
(declare-fun temp1613_59 () (_ BitVec 64))
(declare-fun temp1613_60 () (_ BitVec 64))
(declare-fun temp1613_61 () (_ BitVec 64))
(declare-fun temp1613_62 () (_ BitVec 64))
(declare-fun temp1613_63 () (_ BitVec 64))
(declare-fun temp1613_64 () (_ BitVec 64))
(declare-fun temp1613_65 () (_ BitVec 64))
(declare-fun ARGNAME_w_hh_NAMEEND_DIM () (_ BitVec 64))
(declare-fun temp1613_66 () (_ BitVec 64))
(declare-fun temp1613_67 () (_ BitVec 64))
(declare-fun var77383 () (_ BitVec 64))
(declare-fun temp1613_68 () (_ BitVec 64))
(declare-fun temp1613_69 () (_ BitVec 64))
(declare-fun temp1613_70 () (_ BitVec 64))
(declare-fun temp1613_71 () (_ BitVec 64))
(declare-fun temp1613_72 () (_ BitVec 64))
(declare-fun ARGNAME_hx_NAMEEND_DIMSIZE () (Array (_ BitVec 64) (_ BitVec 64)))
(declare-fun temp1613_73 () (_ BitVec 64))
(declare-fun temp1613_74 () (_ BitVec 64))
(declare-fun temp1613_75 () (_ BitVec 64))
(declare-fun temp1613_76 () (_ BitVec 64))
(declare-fun temp1613_77 () (_ BitVec 64))
(declare-fun temp1613_78 () (_ BitVec 64))
(declare-fun temp1613_79 () (_ BitVec 64))
(declare-fun temp1613_80 () (_ BitVec 64))
(declare-fun temp1613_81 () (_ BitVec 64))
(declare-fun temp1613_82 () (_ BitVec 64))
(declare-fun temp1613_83 () (_ BitVec 64))
(declare-fun temp1613_84 () (_ BitVec 64))
(declare-fun temp1613_85 () (_ BitVec 64))
(declare-fun temp1613_86 () (_ BitVec 64))
(declare-fun temp1613_87 () (_ BitVec 64))
(declare-fun temp1613_88 () (_ BitVec 64))
(declare-fun temp1613_89 () (_ BitVec 64))
(declare-fun temp1613_90 () (_ BitVec 64))
(declare-fun temp1613_91 () (_ BitVec 64))
(declare-fun ARGNAME_hx_NAMEEND_DIM () (_ BitVec 64))
(declare-fun var666568 () (_ BitVec 64))
(declare-fun temp1613_92 () (_ BitVec 64))
(declare-fun temp1613_93 () (_ BitVec 64))
(declare-fun temp1613_94 () (_ BitVec 64))
(declare-fun temp1613_95 () (_ BitVec 64))
(declare-fun temp1613_96 () (_ BitVec 64))
(declare-fun var666637 () (_ BitVec 64))
(declare-fun temp1613_97 () (_ BitVec 64))
(declare-fun temp1613_99 () (_ BitVec 64))
(declare-fun temp1613_98 () (_ BitVec 64))
(declare-fun temp1613_100 () (_ BitVec 64))
(declare-fun var1514936 () (_ BitVec 64))
(declare-fun temp1613_101 () (_ BitVec 64))
(declare-fun temp1613_102 () (_ BitVec 64))
(declare-fun var2232385 () (_ BitVec 64))
(declare-fun temp1613_103 () (_ BitVec 64))
(declare-fun var2232386 () (_ BitVec 64))
(declare-fun temp1613_104 () (_ BitVec 64))
(declare-fun var2363457 () (_ BitVec 64))
(declare-fun temp1613_105 () (_ BitVec 64))
(declare-fun var2363458 () (_ BitVec 64))
(declare-fun temp1613_106 () (_ BitVec 64))
(declare-fun var2494539 () (_ BitVec 64))
(declare-fun temp1613_107 () (_ BitVec 64))
(declare-fun var2560084 () (_ BitVec 64))
(declare-fun temp1613_108 () (_ BitVec 64))
(declare-fun var2625353 () (_ BitVec 64))
(declare-fun temp1613_109 () (_ BitVec 64))
(declare-fun var2887755 () (_ BitVec 64))
(declare-fun temp1613_110 () (_ BitVec 64))
(declare-fun var2953300 () (_ BitVec 64))
(declare-fun temp1613_111 () (_ BitVec 64))
(declare-fun var3018569 () (_ BitVec 64))
(declare-fun temp1613_112 () (_ BitVec 64))
(declare-fun var3280980 () (_ BitVec 64))
(declare-fun temp1613_113 () (_ BitVec 64))
(declare-fun var3346507 () (_ BitVec 64))
(declare-fun temp1613_114 () (_ BitVec 64))
(declare-fun var3477321 () (_ BitVec 64))
(declare-fun temp1613_115 () (_ BitVec 64))
(declare-fun var3870537 () (_ BitVec 64))
(declare-fun temp1613_116 () (_ BitVec 64))
(declare-fun var4132681 () (_ BitVec 64))
(assert (= temp1613_1 #x0000000000000001))
(assert (= var68976 temp1613_1))
(assert (= temp1613_2 #x0000000000000000))
(assert (= temp1613_3 temp1613_2))
(assert (= temp1613_4 (select ARGNAME_w_ih_NAMEEND_DIMSIZE temp1613_3)))
(assert (= temp1613_5 #x0000000000000001))
(assert (= temp1613_6 temp1613_5))
(assert (= temp1613_7 (select ARGNAME_w_ih_NAMEEND_DIMSIZE temp1613_6)))
(assert (= temp1613_8 #x0000000000000002))
(assert (= temp1613_9 temp1613_8))
(assert (= temp1613_10 (select ARGNAME_w_ih_NAMEEND_DIMSIZE temp1613_9)))
(assert (= temp1613_11 #x0000000000000003))
(assert (= temp1613_12 temp1613_11))
(assert (= temp1613_13 (select ARGNAME_w_ih_NAMEEND_DIMSIZE temp1613_12)))
(assert (= temp1613_14 #x0000000000000004))
(assert (= temp1613_15 temp1613_14))
(assert (= temp1613_16 (select ARGNAME_w_ih_NAMEEND_DIMSIZE temp1613_15)))
(assert (= temp1613_17 #x0000000000000005))
(assert (= temp1613_18 temp1613_17))
(assert (= temp1613_19 (select ARGNAME_w_ih_NAMEEND_DIMSIZE temp1613_18)))
(assert (= temp1613_20 #x0000000000000000))
(assert (= temp1613_21
   (ite (bvslt var68976 temp1613_20)
        (bvadd ARGNAME_w_ih_NAMEEND_DIM var68976)
        var68976)))
(assert (= temp1613_22 (select ARGNAME_w_ih_NAMEEND_DIMSIZE temp1613_21)))
(assert (= var77378 temp1613_22))
(assert (bvslt (ite (bvslt var68976 temp1613_20)
            (bvadd ARGNAME_w_ih_NAMEEND_DIM var68976)
            var68976)
       ARGNAME_w_ih_NAMEEND_DIM))
(assert (= temp1613_23 #x0000000000000000))
(assert (= temp1613_24 temp1613_23))
(assert (= temp1613_25 (select ARGNAME_input_NAMEEND_DIMSIZE temp1613_24)))
(assert (= temp1613_26 #x0000000000000001))
(assert (= temp1613_27 temp1613_26))
(assert (= temp1613_28 (select ARGNAME_input_NAMEEND_DIMSIZE temp1613_27)))
(assert (= temp1613_29 #x0000000000000002))
(assert (= temp1613_30 temp1613_29))
(assert (= temp1613_31 (select ARGNAME_input_NAMEEND_DIMSIZE temp1613_30)))
(assert (= temp1613_32 #x0000000000000003))
(assert (= temp1613_33 temp1613_32))
(assert (= temp1613_34 (select ARGNAME_input_NAMEEND_DIMSIZE temp1613_33)))
(assert (= temp1613_35 #x0000000000000004))
(assert (= temp1613_36 temp1613_35))
(assert (= temp1613_37 (select ARGNAME_input_NAMEEND_DIMSIZE temp1613_36)))
(assert (= temp1613_38 #x0000000000000005))
(assert (= temp1613_39 temp1613_38))
(assert (= temp1613_40 (select ARGNAME_input_NAMEEND_DIMSIZE temp1613_39)))
(assert (= temp1613_41 #x0000000000000001))
(assert (= temp1613_42 temp1613_41))
(assert (= temp1613_43 (select ARGNAME_input_NAMEEND_DIMSIZE temp1613_42)))
(assert (bvsgt ARGNAME_input_NAMEEND_DIM temp1613_41))
(assert (bvsge temp1613_41 (bvneg ARGNAME_input_NAMEEND_DIM)))
(assert (= temp1613_44 var77378))
(assert (= var404256
   (ite (= temp1613_43 temp1613_44) #x0000000000000001 #x0000000000000000)))
(assert (= temp1613_45 #x0000000000000001))
(assert (= var404256 temp1613_45))
(assert (= temp1613_46 #x0000000000000001))
(assert (= var68976 temp1613_46))
(assert (= temp1613_47 #x0000000000000000))
(assert (= temp1613_48 temp1613_47))
(assert (= temp1613_49 (select ARGNAME_w_hh_NAMEEND_DIMSIZE temp1613_48)))
(assert (= temp1613_50 #x0000000000000001))
(assert (= temp1613_51 temp1613_50))
(assert (= temp1613_52 (select ARGNAME_w_hh_NAMEEND_DIMSIZE temp1613_51)))
(assert (= temp1613_53 #x0000000000000002))
(assert (= temp1613_54 temp1613_53))
(assert (= temp1613_55 (select ARGNAME_w_hh_NAMEEND_DIMSIZE temp1613_54)))
(assert (= temp1613_56 #x0000000000000003))
(assert (= temp1613_57 temp1613_56))
(assert (= temp1613_58 (select ARGNAME_w_hh_NAMEEND_DIMSIZE temp1613_57)))
(assert (= temp1613_59 #x0000000000000004))
(assert (= temp1613_60 temp1613_59))
(assert (= temp1613_61 (select ARGNAME_w_hh_NAMEEND_DIMSIZE temp1613_60)))
(assert (= temp1613_62 #x0000000000000005))
(assert (= temp1613_63 temp1613_62))
(assert (= temp1613_64 (select ARGNAME_w_hh_NAMEEND_DIMSIZE temp1613_63)))
(assert (= temp1613_65 #x0000000000000000))
(assert (= temp1613_66
   (ite (bvslt var68976 temp1613_65)
        (bvadd ARGNAME_w_hh_NAMEEND_DIM var68976)
        var68976)))
(assert (= temp1613_67 (select ARGNAME_w_hh_NAMEEND_DIMSIZE temp1613_66)))
(assert (= var77383 temp1613_67))
(assert (bvslt (ite (bvslt var68976 temp1613_65)
            (bvadd ARGNAME_w_hh_NAMEEND_DIM var68976)
            var68976)
       ARGNAME_w_hh_NAMEEND_DIM))
(assert (= temp1613_68 #x0000000000000000))
(assert (= temp1613_69 temp1613_68))
(assert (= temp1613_70 (select ARGNAME_input_NAMEEND_DIMSIZE temp1613_69)))
(assert (bvsgt ARGNAME_input_NAMEEND_DIM temp1613_68))
(assert (bvsge temp1613_68 (bvneg ARGNAME_input_NAMEEND_DIM)))
(assert (= temp1613_71 #x0000000000000000))
(assert (= temp1613_72 temp1613_71))
(assert (= temp1613_73 (select ARGNAME_hx_NAMEEND_DIMSIZE temp1613_72)))
(assert (= temp1613_74 #x0000000000000001))
(assert (= temp1613_75 temp1613_74))
(assert (= temp1613_76 (select ARGNAME_hx_NAMEEND_DIMSIZE temp1613_75)))
(assert (= temp1613_77 #x0000000000000002))
(assert (= temp1613_78 temp1613_77))
(assert (= temp1613_79 (select ARGNAME_hx_NAMEEND_DIMSIZE temp1613_78)))
(assert (= temp1613_80 #x0000000000000003))
(assert (= temp1613_81 temp1613_80))
(assert (= temp1613_82 (select ARGNAME_hx_NAMEEND_DIMSIZE temp1613_81)))
(assert (= temp1613_83 #x0000000000000004))
(assert (= temp1613_84 temp1613_83))
(assert (= temp1613_85 (select ARGNAME_hx_NAMEEND_DIMSIZE temp1613_84)))
(assert (= temp1613_86 #x0000000000000005))
(assert (= temp1613_87 temp1613_86))
(assert (= temp1613_88 (select ARGNAME_hx_NAMEEND_DIMSIZE temp1613_87)))
(assert (= temp1613_89 #x0000000000000000))
(assert (= temp1613_90 temp1613_89))
(assert (= temp1613_91 (select ARGNAME_hx_NAMEEND_DIMSIZE temp1613_90)))
(assert (bvsgt ARGNAME_hx_NAMEEND_DIM temp1613_89))
(assert (bvsge temp1613_89 (bvneg ARGNAME_hx_NAMEEND_DIM)))
(assert (= var666568
   (ite (= temp1613_70 temp1613_91) #x0000000000000001 #x0000000000000000)))
(assert (= temp1613_92 #x0000000000000001))
(assert (= var666568 temp1613_92))
(assert (= temp1613_93 #x0000000000000001))
(assert (= temp1613_94 temp1613_93))
(assert (= temp1613_95 (select ARGNAME_hx_NAMEEND_DIMSIZE temp1613_94)))
(assert (bvsgt ARGNAME_hx_NAMEEND_DIM temp1613_93))
(assert (bvsge temp1613_93 (bvneg ARGNAME_hx_NAMEEND_DIM)))
(assert (= temp1613_96 var77383))
(assert (= var666637
   (ite (= temp1613_95 temp1613_96) #x0000000000000001 #x0000000000000000)))
(assert (= temp1613_97 #x0000000000000001))
(assert (= var666637 temp1613_97))
(assert (= temp1613_99 #x0000000000000000))
(assert (= temp1613_98 temp1613_99))
(assert (= temp1613_100 #x0000000000000000))
(assert (= var1514936 temp1613_100))
(assert (= temp1613_101 #x0000000000000000))
(assert (= var1514936 temp1613_101))
(assert (= temp1613_102 #x0000000000000003))
(assert (= var2232385 temp1613_102))
(assert (= temp1613_103 #x0000000000000001))
(assert (= var2232386 temp1613_103))
(assert (= temp1613_104 #x0000000000000003))
(assert (= var2363457 temp1613_104))
(assert (= temp1613_105 #x0000000000000001))
(assert (= var2363458 temp1613_105))
(assert (= temp1613_106 #x0000000000000000))
(assert (= var2494539 temp1613_106))
(assert (= temp1613_107 #x0000000000000000))
(assert (= var2560084 temp1613_107))
(assert (= temp1613_108 #x0000000000000001))
(assert (= var2625353 temp1613_108))
(assert (= temp1613_109 #x0000000000000001))
(assert (= var2887755 temp1613_109))
(assert (= temp1613_110 #x0000000000000001))
(assert (= var2953300 temp1613_110))
(assert (= temp1613_111 #x0000000000000001))
(assert (= var3018569 temp1613_111))
(assert (= temp1613_112 #x0000000000000002))
(assert (= var3280980 temp1613_112))
(assert (= temp1613_113 #x0000000000000002))
(assert (= var3346507 temp1613_113))
(assert (= temp1613_114 #x0000000000000001))
(assert (= var3477321 temp1613_114))
(assert (= temp1613_115 #x0000000000000001))
(assert (= var3870537 temp1613_115))
(assert (= temp1613_116 #x0000000000000001))
(assert (= var4132681 temp1613_116))
(model-add temp1613_1 () (_ BitVec 64) #x0000000000000001)
(model-add var68976 () (_ BitVec 64) #x0000000000000001)
(model-add temp1613_2 () (_ BitVec 64) #x0000000000000000)
(model-add temp1613_3 () (_ BitVec 64) #x0000000000000000)
(model-add temp1613_4
           ()
           (_ BitVec 64)
           (select ARGNAME_w_ih_NAMEEND_DIMSIZE #x0000000000000000))
(model-add temp1613_5 () (_ BitVec 64) #x0000000000000001)
(model-add temp1613_6 () (_ BitVec 64) #x0000000000000001)
(model-add temp1613_7
           ()
           (_ BitVec 64)
           (select ARGNAME_w_ih_NAMEEND_DIMSIZE #x0000000000000001))
(model-add temp1613_8 () (_ BitVec 64) #x0000000000000002)
(model-add temp1613_9 () (_ BitVec 64) #x0000000000000002)
(model-add temp1613_10
           ()
           (_ BitVec 64)
           (select ARGNAME_w_ih_NAMEEND_DIMSIZE #x0000000000000002))
(model-add temp1613_11 () (_ BitVec 64) #x0000000000000003)
(model-add temp1613_12 () (_ BitVec 64) #x0000000000000003)
(model-add temp1613_13
           ()
           (_ BitVec 64)
           (select ARGNAME_w_ih_NAMEEND_DIMSIZE #x0000000000000003))
(model-add temp1613_14 () (_ BitVec 64) #x0000000000000004)
(model-add temp1613_15 () (_ BitVec 64) #x0000000000000004)
(model-add temp1613_16
           ()
           (_ BitVec 64)
           (select ARGNAME_w_ih_NAMEEND_DIMSIZE #x0000000000000004))
(model-add temp1613_17 () (_ BitVec 64) #x0000000000000005)
(model-add temp1613_18 () (_ BitVec 64) #x0000000000000005)
(model-add temp1613_19
           ()
           (_ BitVec 64)
           (select ARGNAME_w_ih_NAMEEND_DIMSIZE #x0000000000000005))
(model-add temp1613_20 () (_ BitVec 64) #x0000000000000000)
(model-add temp1613_21 () (_ BitVec 64) #x0000000000000001)
(model-add temp1613_22
           ()
           (_ BitVec 64)
           (select ARGNAME_w_ih_NAMEEND_DIMSIZE #x0000000000000001))
(model-add var77378
           ()
           (_ BitVec 64)
           (select ARGNAME_w_ih_NAMEEND_DIMSIZE #x0000000000000001))
(model-add temp1613_23 () (_ BitVec 64) #x0000000000000000)
(model-add temp1613_24 () (_ BitVec 64) #x0000000000000000)
(model-add temp1613_25
           ()
           (_ BitVec 64)
           (select ARGNAME_input_NAMEEND_DIMSIZE #x0000000000000000))
(model-add temp1613_26 () (_ BitVec 64) #x0000000000000001)
(model-add temp1613_27 () (_ BitVec 64) #x0000000000000001)
(model-add temp1613_28
           ()
           (_ BitVec 64)
           (select ARGNAME_input_NAMEEND_DIMSIZE #x0000000000000001))
(model-add temp1613_29 () (_ BitVec 64) #x0000000000000002)
(model-add temp1613_30 () (_ BitVec 64) #x0000000000000002)
(model-add temp1613_31
           ()
           (_ BitVec 64)
           (select ARGNAME_input_NAMEEND_DIMSIZE #x0000000000000002))
(model-add temp1613_32 () (_ BitVec 64) #x0000000000000003)
(model-add temp1613_33 () (_ BitVec 64) #x0000000000000003)
(model-add temp1613_34
           ()
           (_ BitVec 64)
           (select ARGNAME_input_NAMEEND_DIMSIZE #x0000000000000003))
(model-add temp1613_35 () (_ BitVec 64) #x0000000000000004)
(model-add temp1613_36 () (_ BitVec 64) #x0000000000000004)
(model-add temp1613_37
           ()
           (_ BitVec 64)
           (select ARGNAME_input_NAMEEND_DIMSIZE #x0000000000000004))
(model-add temp1613_38 () (_ BitVec 64) #x0000000000000005)
(model-add temp1613_39 () (_ BitVec 64) #x0000000000000005)
(model-add temp1613_40
           ()
           (_ BitVec 64)
           (select ARGNAME_input_NAMEEND_DIMSIZE #x0000000000000005))
(model-add temp1613_41 () (_ BitVec 64) #x0000000000000001)
(model-add temp1613_42 () (_ BitVec 64) #x0000000000000001)
(model-add temp1613_43
           ()
           (_ BitVec 64)
           (select ARGNAME_input_NAMEEND_DIMSIZE #x0000000000000001))
(model-add temp1613_44
           ()
           (_ BitVec 64)
           (select ARGNAME_w_ih_NAMEEND_DIMSIZE #x0000000000000001))
(model-add temp1613_45 () (_ BitVec 64) #x0000000000000001)
(model-add var404256 () (_ BitVec 64) #x0000000000000001)
(model-del k!0)
(model-add ARGNAME_w_ih_NAMEEND_DIM
           ()
           (_ BitVec 64)
           (ite (or k!0 (= #x0000000000000001 #x7fffffffffffffff))
                #x0000000000000001
                (bvadd #x0000000000000001 #x0000000000000001)))
(model-del k!1)
(model-add ARGNAME_input_NAMEEND_DIMSIZE
           ()
           (Array (_ BitVec 64) (_ BitVec 64))
           ((as const (Array (_ BitVec 64) (_ BitVec 64))) k!1))
(model-del k!2)
(model-add ARGNAME_w_ih_NAMEEND_DIMSIZE
           ()
           (Array (_ BitVec 64) (_ BitVec 64))
           ((as const (Array (_ BitVec 64) (_ BitVec 64))) k!2))
(model-del k!3)
(model-add k!0 () Bool (not k!3))
(model-del k!4)
(model-add k!1 () (_ BitVec 64) (ite k!4 k!2 (bvnot k!2)))





